NAME : lr211.911516.tour
COMMENT : Cost = 0_911516
COMMENT : Found by LKH [Keld Helsgaun] Fri Sep 15 17:42:02 2017
TYPE : TOUR
DIMENSION : 102
TOUR_SECTION
1
96
3
22
73
76
24
68
40
13
77
30
80
34
82
10
66
72
52
31
91
64
65
50
37
48
49
47
9
46
85
6
7
95
97
60
38
98
14
59
27
75
57
5
26
56
55
25
81
69
78
102
29
28
53
70
32
89
63
12
20
8
83
84
19
100
93
99
86
62
17
87
39
45
15
43
88
58
44
16
42
23
74
41
54
51
4
79
35
36
67
21
33
11
71
2
61
18
92
101
94
90
-1
EOF
